DATASET = "thpack5";
INSTANCE = "048";

WIDTH = 233;
HEIGHT = 220;
LENGTH = 587;

NO_OF_SHAPES = 12;
size = [|
  59,49,48 |
  79,63,46 |
  95,58,38 |
  95,79,47 |
  72,46,27 |
  88,74,72 |
  90,77,67 |
  96,59,36 |
  62,55,46 |
  92,77,43 |
  100,66,41 |
  76,72,44 |
|];

verticality = [|
  1,1,1 |
  1,1,1 |
  0,1,1 |
  0,1,1 |
  0,1,1 |
  1,1,1 |
  1,1,1 |
  0,1,1 |
  1,1,1 |
  0,1,1 |
  0,1,1 |
  1,1,1 |
|];

box_count = [
  4,
  7,
  9,
  11,
  10,
  9,
  9,
  10,
  9,
  17,
  8,
  8,
];
